Version identifier: 22.1.1.0 | 2022-11-28 | 9160aff4d
CPXPARAM_TimeLimit                               3600
Tried aggregator 1 time.
MIP Presolve eliminated 190 rows and 141 columns.
Reduced MIP has 5410 rows, 2470 columns, and 16130 nonzeros.
Reduced MIP has 2470 binaries, 0 generals, 0 SOSs, and 0 indicators.
Presolve time = 0.01 sec. (12.41 ticks)
Found incumbent of value 4015980.000000 after 0.02 sec. (15.09 ticks)
Probing time = 0.00 sec. (3.50 ticks)
Tried aggregator 1 time.
Detecting symmetries...
Reduced MIP has 5410 rows, 2470 columns, and 16130 nonzeros.
Reduced MIP has 2470 binaries, 0 generals, 0 SOSs, and 0 indicators.
Presolve time = 0.01 sec. (13.73 ticks)
Probing time = 0.01 sec. (3.50 ticks)
Clique table members: 2360.
MIP emphasis: balance optimality and feasibility.
MIP search method: dynamic search.
Parallel mode: deterministic, using up to 8 threads.
Root relaxation solution time = 0.01 sec. (9.03 ticks)

        Nodes                                         Cuts/
   Node  Left     Objective  IInf  Best Integer    Best Bound    ItCnt     Gap

*     0+    0                      4015980.0000        0.0000           100.00%
*     0+    0                      2112523.0000        0.0000           100.00%
*     0+    0                       651189.0000        0.0000           100.00%
*     0+    0                       605977.0000        0.0000           100.00%
      0     0    93774.0000   100   605977.0000    93774.0000      148   84.53%
      0     0   106217.5000   100   605977.0000     Cuts: 153      269   82.47%
*     0+    0                       139005.0000   106217.5000            23.59%
      0     0   117358.5000    78   139005.0000     Cuts: 149      361   15.57%
Detecting symmetries...

Repeating presolve.
Tried aggregator 1 time.
MIP Presolve eliminated 4554 rows and 1824 columns.
MIP Presolve modified 460 coefficients.
Reduced MIP has 856 rows, 646 columns, and 2895 nonzeros.
Reduced MIP has 646 binaries, 0 generals, 0 SOSs, and 0 indicators.
Presolve time = 0.00 sec. (4.98 ticks)
Probing time = 0.00 sec. (0.72 ticks)
Tried aggregator 1 time.
Detecting symmetries...
Reduced MIP has 856 rows, 646 columns, and 2895 nonzeros.
Reduced MIP has 646 binaries, 0 generals, 0 SOSs, and 0 indicators.
Presolve time = 0.00 sec. (2.90 ticks)
Represolve time = 0.01 sec. (12.85 ticks)
Probing time = 0.00 sec. (0.72 ticks)
Clique table members: 684.
MIP emphasis: balance optimality and feasibility.
MIP search method: dynamic search.
Parallel mode: deterministic, using up to 8 threads.
Root relaxation solution time = 0.01 sec. (6.79 ticks)

        Nodes                                         Cuts/
   Node  Left     Objective  IInf  Best Integer    Best Bound    ItCnt     Gap

*     0+    0                       139005.0000   117358.5000            15.57%
      0     0   132995.0000    68   139005.0000   132995.0000      625    4.32%
      0     0   134172.6667   111   139005.0000       Cuts: 8      684    3.48%
      0     0   135452.3000   128   139005.0000      Cuts: 27      721    2.56%
*     0+    0                       138494.0000   135452.3000             2.20%
      0     0        cutoff         138494.0000   138494.0000      721    0.00%
Elapsed time = 0.23 sec. (170.26 ticks, tree = 0.01 MB, solutions = 6)

Implied bound cuts applied:  95
Zero-half cuts applied:  6
Lift and project cuts applied:  1
Gomory fractional cuts applied:  2

Root node processing (before b&c):
  Real time             =    0.23 sec. (170.43 ticks)
Parallel b&c, 8 threads:
  Real time             =    0.00 sec. (0.00 ticks)
  Sync time (average)   =    0.00 sec.
  Wait time (average)   =    0.00 sec.
                          ------------
Total (root+branch&cut) =    0.23 sec. (170.43 ticks)
Status: Optimal
Obj: 138494

Instalacoes abertas:
Instalação 4 aberta
Instalação 9 aberta
Instalação 20 aberta
Instalação 22 aberta

Atribuições (cliente -> instalação):
Cliente 0 -> Instalação 9
Cliente 1 -> Instalação 9
Cliente 2 -> Instalação 20
Cliente 3 -> Instalação 20
Cliente 4 -> Instalação 4
Cliente 5 -> Instalação 9
Cliente 6 -> Instalação 9
Cliente 7 -> Instalação 20
Cliente 8 -> Instalação 4
Cliente 9 -> Instalação 9
Cliente 10 -> Instalação 20
Cliente 11 -> Instalação 9
Cliente 12 -> Instalação 9
Cliente 13 -> Instalação 20
Cliente 14 -> Instalação 4
Cliente 15 -> Instalação 9
Cliente 16 -> Instalação 20
Cliente 17 -> Instalação 9
Cliente 18 -> Instalação 20
Cliente 19 -> Instalação 9
Cliente 20 -> Instalação 20
Cliente 21 -> Instalação 9
Cliente 22 -> Instalação 22
Cliente 23 -> Instalação 9
Cliente 24 -> Instalação 4
Cliente 25 -> Instalação 9
Cliente 26 -> Instalação 9
Cliente 27 -> Instalação 20
Cliente 28 -> Instalação 9
Cliente 29 -> Instalação 9
Cliente 30 -> Instalação 9
Cliente 31 -> Instalação 20
Cliente 32 -> Instalação 20
Cliente 33 -> Instalação 4
Cliente 34 -> Instalação 4
Cliente 35 -> Instalação 9
Cliente 36 -> Instalação 20
Cliente 37 -> Instalação 20
Cliente 38 -> Instalação 4
Cliente 39 -> Instalação 4
Cliente 40 -> Instalação 9
Cliente 41 -> Instalação 20
Cliente 42 -> Instalação 9
Cliente 43 -> Instalação 20
Cliente 44 -> Instalação 4
Cliente 45 -> Instalação 4
Cliente 46 -> Instalação 4
Cliente 47 -> Instalação 4
Cliente 48 -> Instalação 9
Cliente 49 -> Instalação 9
